objective value:                                  -82
t_x26                                               1 	(obj:-100)
t_y26_224                                           1 	(obj:1)
t_y26_253                                           1 	(obj:1)
t_y26_42                                            1 	(obj:1)
t_y26_320                                           1 	(obj:1)
t_y26_116                                           1 	(obj:1)
t_y26_272                                           1 	(obj:1)
t_y26_124                                           1 	(obj:1)
t_y26_260                                           1 	(obj:1)
t_y26_190                                           1 	(obj:1)
t_y26_307                                           1 	(obj:1)
t_y15_26                                            1 	(obj:1)
t_y26_81                                            1 	(obj:1)
t_y26_41                                            1 	(obj:1)
t_y26_192                                           1 	(obj:1)
t_y26_258                                           1 	(obj:1)
t_y26_244                                           1 	(obj:1)
t_y26_160                                           1 	(obj:1)
t_y26_44                                            1 	(obj:1)
